; SWAP1 SWAP2 SWAP1 DUP2 DUP2 DUP2 => DUP3 SWAP2 SWAP3 DUP2 DUP4
(set-option :produce-proofs true)
; 
(set-info :status unknown)
(declare-fun storage_t ((_ BitVec 256) (_ BitVec 256) (_ BitVec 256) Int (_ BitVec 256)) (_ BitVec 256))
(declare-fun storage_s ((_ BitVec 256) (_ BitVec 256) (_ BitVec 256) Int (_ BitVec 256)) (_ BitVec 256))
(declare-fun exc_halt_t (Int) Bool)
(declare-fun exc_halt_s (Int) Bool)
(declare-fun stack_t ((_ BitVec 256) (_ BitVec 256) (_ BitVec 256) Int (_ BitVec 6)) (_ BitVec 256))
(declare-fun stack_s ((_ BitVec 256) (_ BitVec 256) (_ BitVec 256) Int (_ BitVec 6)) (_ BitVec 256))
(declare-fun sc_t (Int) (_ BitVec 6))
(declare-fun sc_s (Int) (_ BitVec 6))
(declare-fun used_gas_t ((_ BitVec 256) (_ BitVec 256) (_ BitVec 256) Int) Int)
(declare-fun used_gas_s ((_ BitVec 256) (_ BitVec 256) (_ BitVec 256) Int) Int)
(assert
 (exists ((x_0 (_ BitVec 256)) (x_1 (_ BitVec 256)) (x_2 (_ BitVec 256)) )(let (($x11264 (forall ((w (_ BitVec 256)) )(let ((?x3455 (storage_t x_0 x_1 x_2 5 w)))
 (let ((?x8795 (storage_s x_0 x_1 x_2 6 w)))
 (= ?x8795 ?x3455))))
 ))
 (let (($x10311 (exc_halt_t 5)))
 (let (($x7121 (exc_halt_s 6)))
 (let (($x4790 (= $x7121 $x10311)))
 (let (($x8930 (forall ((n (_ BitVec 6)) )(let ((?x11269 (stack_t x_0 x_1 x_2 5 n)))
 (let ((?x10021 (stack_s x_0 x_1 x_2 6 n)))
 (let (($x9161 (= ?x10021 ?x11269)))
 (or (bvsle (sc_t 5) n) $x9161)))))
 ))
 (let ((?x10036 (sc_t 5)))
 (let ((?x9114 (sc_s 6)))
 (let (($x6242 (= ?x9114 ?x10036)))
 (let ((?x4890 (used_gas_t x_0 x_1 x_2 0)))
 (let ((?x7103 (used_gas_s x_0 x_1 x_2 0)))
 (let (($x4162 (= ?x7103 ?x4890)))
 (let (($x10443 (forall ((w (_ BitVec 256)) )(let ((?x8696 (storage_t x_0 x_1 x_2 0 w)))
 (let ((?x11812 (storage_s x_0 x_1 x_2 0 w)))
 (= ?x11812 ?x8696))))
 ))
 (let (($x56 (exc_halt_t 0)))
 (let (($x57 (exc_halt_s 0)))
 (let (($x58 (= $x57 $x56)))
 (let (($x7961 (forall ((n (_ BitVec 6)) )(let ((?x63 (sc_t 0)))
 (let (($x11318 (bvsle ?x63 n)))
 (let ((?x11058 (stack_t x_0 x_1 x_2 0 n)))
 (let ((?x9688 (stack_s x_0 x_1 x_2 0 n)))
 (let (($x2867 (= ?x9688 ?x11058)))
 (or $x2867 $x11318)))))))
 ))
 (let ((?x63 (sc_t 0)))
 (let ((?x72 (sc_s 0)))
 (let (($x73 (= ?x72 ?x63)))
 (let (($x7854 (exc_halt_t 4)))
 (let (($x875 (or (not (= ((_ extract 6 6) (bvadd (_ bv1 7) (concat (_ bv0 1) (sc_t 4)))) (_ bv0 1))) $x7854 (not (bvsle (_ bv0 6) (bvadd (_ bv60 6) (sc_t 4)))))))
 (let (($x1488 (forall ((w (_ BitVec 256)) )(let ((?x902 (storage_t x_0 x_1 x_2 4 w)))
 (let ((?x3455 (storage_t x_0 x_1 x_2 5 w)))
 (= ?x3455 ?x902))))
 ))
 (let (($x2047 (forall ((n (_ BitVec 6)) )(let ((?x5770 (stack_t x_0 x_1 x_2 4 n)))
 (let ((?x11269 (stack_t x_0 x_1 x_2 5 n)))
 (or (= ?x11269 ?x5770) (bvsle (bvadd (_ bv60 6) (sc_t 4)) n)))))
 ))
 (let (($x1060 (= (used_gas_t x_0 x_1 x_2 5) (+ 3 (used_gas_t x_0 x_1 x_2 4)))))
 (let ((?x7495 (sc_t 4)))
 (let ((?x8167 (bvadd (_ bv63 6) ?x7495)))
 (let ((?x9444 (stack_t x_0 x_1 x_2 4 ?x8167)))
 (let (($x527 (= (stack_t x_0 x_1 x_2 5 (bvadd (_ bv62 6) ?x7495)) (stack_t x_0 x_1 x_2 4 (bvadd (_ bv62 6) ?x7495)))))
 (let (($x6168 (= (stack_t x_0 x_1 x_2 5 (bvadd (_ bv61 6) ?x7495)) (stack_t x_0 x_1 x_2 4 (bvadd (_ bv61 6) ?x7495)))))
 (let ((?x3094 (bvadd (_ bv60 6) ?x7495)))
 (let ((?x4785 (stack_t x_0 x_1 x_2 4 ?x3094)))
 (let (($x5429 (exc_halt_t 3)))
 (let (($x11027 (or (not (= ((_ extract 6 6) (bvadd (_ bv1 7) (concat (_ bv0 1) (sc_t 3)))) (_ bv0 1))) $x5429 (not (bvsle (_ bv0 6) (bvadd (_ bv62 6) (sc_t 3)))))))
 (let (($x6938 (forall ((w (_ BitVec 256)) )(let ((?x1846 (storage_t x_0 x_1 x_2 3 w)))
 (let ((?x902 (storage_t x_0 x_1 x_2 4 w)))
 (= ?x902 ?x1846))))
 ))
 (let (($x9295 (forall ((n (_ BitVec 6)) )(let ((?x4791 (stack_t x_0 x_1 x_2 3 n)))
 (let ((?x5770 (stack_t x_0 x_1 x_2 4 n)))
 (or (= ?x5770 ?x4791) (bvsle (bvadd (_ bv62 6) (sc_t 3)) n)))))
 ))
 (let ((?x11155 (used_gas_t x_0 x_1 x_2 4)))
 (let ((?x7621 (sc_t 3)))
 (let ((?x9251 (bvadd (_ bv63 6) ?x7621)))
 (let ((?x248 (stack_t x_0 x_1 x_2 3 ?x9251)))
 (let ((?x150 (bvadd (_ bv62 6) ?x7621)))
 (let ((?x9785 (stack_t x_0 x_1 x_2 3 ?x150)))
 (let (($x5589 (= $x5429 (or (exc_halt_t 2) (not (bvsle (_ bv0 6) (bvadd (_ bv60 6) (sc_t 2))))))))
 (let (($x3963 (forall ((w (_ BitVec 256)) )(let ((?x10167 (storage_t x_0 x_1 x_2 2 w)))
 (let ((?x1846 (storage_t x_0 x_1 x_2 3 w)))
 (= ?x1846 ?x10167))))
 ))
 (let (($x2802 (forall ((n (_ BitVec 6)) )(let ((?x8486 (stack_t x_0 x_1 x_2 2 n)))
 (let ((?x4791 (stack_t x_0 x_1 x_2 3 n)))
 (let (($x8916 (= ?x4791 ?x8486)))
 (or (bvsle (bvadd (_ bv60 6) (sc_t 2)) n) $x8916)))))
 ))
 (let ((?x8890 (sc_t 2)))
 (let (($x5385 (= ?x7621 ?x8890)))
 (let ((?x2091 (used_gas_t x_0 x_1 x_2 3)))
 (let ((?x7829 (stack_t x_0 x_1 x_2 2 (bvadd (_ bv61 6) ?x8890))))
 (let ((?x6760 (bvadd (_ bv63 6) ?x8890)))
 (let ((?x11396 (stack_t x_0 x_1 x_2 2 ?x6760)))
 (let (($x7505 (exc_halt_t 2)))
 (let (($x698 (= $x7505 (or (exc_halt_t 1) (not (bvsle (_ bv0 6) (bvadd (_ bv61 6) (sc_t 1))))))))
 (let (($x3589 (forall ((w (_ BitVec 256)) )(let ((?x2009 (storage_t x_0 x_1 x_2 1 w)))
 (let ((?x10167 (storage_t x_0 x_1 x_2 2 w)))
 (= ?x10167 ?x2009))))
 ))
 (let (($x3958 (forall ((n (_ BitVec 6)) )(let ((?x984 (stack_t x_0 x_1 x_2 1 n)))
 (let ((?x8486 (stack_t x_0 x_1 x_2 2 n)))
 (let (($x5629 (= ?x8486 ?x984)))
 (or (bvsle (bvadd (_ bv61 6) (sc_t 1)) n) $x5629)))))
 ))
 (let ((?x9021 (used_gas_t x_0 x_1 x_2 2)))
 (let (($x649 (= ?x9021 (+ 3 (used_gas_t x_0 x_1 x_2 1)))))
 (let ((?x4554 (sc_t 1)))
 (let ((?x2315 (bvadd (_ bv62 6) ?x4554)))
 (let ((?x7245 (stack_t x_0 x_1 x_2 1 ?x2315)))
 (let ((?x7885 (stack_t x_0 x_1 x_2 2 (bvadd (_ bv62 6) ?x8890))))
 (let (($x921 (not (= ((_ extract 6 6) (bvadd (_ bv1 7) (concat (_ bv0 1) ?x63))) (_ bv0 1)))))
 (let (($x11985 (exc_halt_t 1)))
 (let (($x7292 (forall ((w (_ BitVec 256)) )(let ((?x8696 (storage_t x_0 x_1 x_2 0 w)))
 (let ((?x2009 (storage_t x_0 x_1 x_2 1 w)))
 (= ?x2009 ?x8696))))
 ))
 (let (($x11830 (forall ((n (_ BitVec 6)) )(let ((?x11058 (stack_t x_0 x_1 x_2 0 n)))
 (let ((?x984 (stack_t x_0 x_1 x_2 1 n)))
 (let (($x9435 (= ?x984 ?x11058)))
 (or (bvsle (bvadd (_ bv61 6) (sc_t 0)) n) $x9435)))))
 ))
 (let (($x2096 (= ?x4554 (bvadd (_ bv1 6) ?x63))))
 (let (($x5066 (= (stack_t x_0 x_1 x_2 1 (bvadd (_ bv63 6) ?x63)) (stack_t x_0 x_1 x_2 0 (bvadd (_ bv63 6) ?x63)))))
 (let (($x7716 (= (stack_t x_0 x_1 x_2 1 (bvadd (_ bv62 6) ?x63)) (stack_t x_0 x_1 x_2 0 (bvadd (_ bv62 6) ?x63)))))
 (let ((?x8570 (bvadd (_ bv61 6) ?x63)))
 (let ((?x3168 (stack_t x_0 x_1 x_2 0 ?x8570)))
 (let (($x1862 (exc_halt_s 5)))
 (let (($x6228 (or $x1862 (not (bvsle (_ bv0 6) (bvadd (_ bv62 6) (sc_s 5)))) (not (= ((_ extract 6 6) (bvadd (_ bv1 7) (concat (_ bv0 1) (sc_s 5)))) (_ bv0 1))))))
 (let (($x230 (forall ((w (_ BitVec 256)) )(let ((?x11630 (storage_s x_0 x_1 x_2 5 w)))
 (let ((?x8795 (storage_s x_0 x_1 x_2 6 w)))
 (= ?x8795 ?x11630))))
 ))
 (let (($x937 (forall ((n (_ BitVec 6)) )(let ((?x627 (stack_s x_0 x_1 x_2 5 n)))
 (let ((?x10021 (stack_s x_0 x_1 x_2 6 n)))
 (or (= ?x10021 ?x627) (bvsle (bvadd (_ bv62 6) (sc_s 5)) n)))))
 ))
 (let (($x109 (= (used_gas_s x_0 x_1 x_2 6) (+ 3 (used_gas_s x_0 x_1 x_2 5)))))
 (let ((?x4319 (sc_s 5)))
 (let ((?x9002 (bvadd (_ bv63 6) ?x4319)))
 (let ((?x2024 (stack_s x_0 x_1 x_2 5 ?x9002)))
 (let ((?x3570 (bvadd (_ bv62 6) ?x4319)))
 (let ((?x8373 (stack_s x_0 x_1 x_2 5 ?x3570)))
 (let (($x9175 (exc_halt_s 4)))
 (let (($x5832 (or (not (bvsle (_ bv0 6) (bvadd (_ bv62 6) (sc_s 4)))) (not (= ((_ extract 6 6) (bvadd (_ bv1 7) (concat (_ bv0 1) (sc_s 4)))) (_ bv0 1))) $x9175)))
 (let (($x862 (forall ((w (_ BitVec 256)) )(let ((?x2114 (storage_s x_0 x_1 x_2 4 w)))
 (let ((?x11630 (storage_s x_0 x_1 x_2 5 w)))
 (= ?x11630 ?x2114))))
 ))
 (let (($x9296 (forall ((n (_ BitVec 6)) )(let ((?x6018 (stack_s x_0 x_1 x_2 4 n)))
 (let ((?x627 (stack_s x_0 x_1 x_2 5 n)))
 (or (= ?x627 ?x6018) (bvsle (bvadd (_ bv62 6) (sc_s 4)) n)))))
 ))
 (let ((?x8609 (used_gas_s x_0 x_1 x_2 5)))
 (let ((?x9433 (sc_s 4)))
 (let ((?x3395 (bvadd (_ bv63 6) ?x9433)))
 (let ((?x9593 (stack_s x_0 x_1 x_2 4 ?x3395)))
 (let ((?x11364 (bvadd (_ bv62 6) ?x9433)))
 (let ((?x10268 (stack_s x_0 x_1 x_2 4 ?x11364)))
 (let (($x10681 (not (bvsle (_ bv0 6) (bvadd (_ bv62 6) (sc_s 3))))))
 (let (($x8103 (exc_halt_s 3)))
 (let (($x2051 (or (not (= ((_ extract 6 6) (bvadd (_ bv1 7) (concat (_ bv0 1) (sc_s 3)))) (_ bv0 1))) $x8103 $x10681)))
 (let (($x5783 (forall ((w (_ BitVec 256)) )(let ((?x2107 (storage_s x_0 x_1 x_2 3 w)))
 (let ((?x2114 (storage_s x_0 x_1 x_2 4 w)))
 (= ?x2114 ?x2107))))
 ))
 (let (($x11240 (forall ((n (_ BitVec 6)) )(let ((?x3851 (sc_s 3)))
 (let ((?x8089 (bvadd (_ bv62 6) ?x3851)))
 (let (($x1497 (bvsle ?x8089 n)))
 (let ((?x3167 (stack_s x_0 x_1 x_2 3 n)))
 (let ((?x6018 (stack_s x_0 x_1 x_2 4 n)))
 (or (= ?x6018 ?x3167) $x1497)))))))
 ))
 (let ((?x4562 (used_gas_s x_0 x_1 x_2 4)))
 (let (($x11173 (= ?x4562 (+ 3 (used_gas_s x_0 x_1 x_2 3)))))
 (let ((?x3851 (sc_s 3)))
 (let ((?x1738 (bvadd (_ bv63 6) ?x3851)))
 (let ((?x4407 (stack_s x_0 x_1 x_2 3 ?x1738)))
 (let ((?x8089 (bvadd (_ bv62 6) ?x3851)))
 (let ((?x9845 (stack_s x_0 x_1 x_2 3 ?x8089)))
 (let (($x3635 (= ?x9593 ?x9845)))
 (let (($x4380 (= $x8103 (or (exc_halt_s 2) (not (bvsle (_ bv0 6) (bvadd (_ bv62 6) (sc_s 2))))))))
 (let (($x7802 (forall ((w (_ BitVec 256)) )(let ((?x11677 (storage_s x_0 x_1 x_2 2 w)))
 (let ((?x2107 (storage_s x_0 x_1 x_2 3 w)))
 (= ?x2107 ?x11677))))
 ))
 (let (($x8090 (forall ((n (_ BitVec 6)) )(let ((?x5581 (stack_s x_0 x_1 x_2 2 n)))
 (let ((?x3167 (stack_s x_0 x_1 x_2 3 n)))
 (let (($x3205 (= ?x3167 ?x5581)))
 (or $x3205 (bvsle (bvadd (_ bv62 6) (sc_s 2)) n))))))
 ))
 (let ((?x8669 (used_gas_s x_0 x_1 x_2 3)))
 (let (($x10052 (exc_halt_s 2)))
 (let (($x10704 (= $x10052 (or (exc_halt_s 1) (not (bvsle (_ bv0 6) (bvadd (_ bv61 6) (sc_s 1))))))))
 (let (($x11420 (forall ((w (_ BitVec 256)) )(let ((?x565 (storage_s x_0 x_1 x_2 1 w)))
 (let ((?x11677 (storage_s x_0 x_1 x_2 2 w)))
 (= ?x11677 ?x565))))
 ))
 (let (($x1143 (forall ((n (_ BitVec 6)) )(let ((?x7318 (stack_s x_0 x_1 x_2 1 n)))
 (let ((?x5581 (stack_s x_0 x_1 x_2 2 n)))
 (let (($x6524 (= ?x5581 ?x7318)))
 (let ((?x154 (sc_s 1)))
 (let ((?x7168 (bvadd (_ bv61 6) ?x154)))
 (let (($x5389 (bvsle ?x7168 n)))
 (or $x5389 $x6524))))))))
 ))
 (let ((?x154 (sc_s 1)))
 (let ((?x2272 (sc_s 2)))
 (let (($x5959 (= ?x2272 ?x154)))
 (let ((?x604 (used_gas_s x_0 x_1 x_2 2)))
 (let ((?x8244 (bvadd (_ bv62 6) ?x154)))
 (let ((?x10183 (stack_s x_0 x_1 x_2 1 ?x8244)))
 (let ((?x7947 (bvadd (_ bv62 6) ?x2272)))
 (let ((?x1223 (stack_s x_0 x_1 x_2 2 ?x7947)))
 (let ((?x1791 (bvadd (_ bv63 6) ?x154)))
 (let ((?x8994 (stack_s x_0 x_1 x_2 1 ?x1791)))
 (let ((?x9000 (bvadd (_ bv63 6) ?x2272)))
 (let ((?x6506 (stack_s x_0 x_1 x_2 2 ?x9000)))
 (let (($x7244 (forall ((w (_ BitVec 256)) )(let ((?x11812 (storage_s x_0 x_1 x_2 0 w)))
 (let ((?x565 (storage_s x_0 x_1 x_2 1 w)))
 (= ?x565 ?x11812))))
 ))
 (let (($x11372 (forall ((n (_ BitVec 6)) )(let ((?x9688 (stack_s x_0 x_1 x_2 0 n)))
 (let ((?x7318 (stack_s x_0 x_1 x_2 1 n)))
 (let (($x11535 (= ?x7318 ?x9688)))
 (or (bvsle (bvadd (_ bv62 6) (sc_s 0)) n) $x11535)))))
 ))
 (let ((?x5650 (used_gas_s x_0 x_1 x_2 1)))
 (let (($x11281 (= ?x5650 (+ 3 ?x7103))))
 (let (($x6833 (forall ((w (_ BitVec 256)) )(let ((?x11812 (storage_s x_0 x_1 x_2 0 w)))
 (= ?x11812 (_ bv0 256))))
 ))
 (let (($x5077 (= ?x7103 0)))
 (let (($x3971 (not $x57)))
 (let (($x7763 (= (stack_s x_0 x_1 x_2 0 (_ bv2 6)) x_2)))
 (let (($x5347 (= (stack_s x_0 x_1 x_2 0 (_ bv1 6)) x_1)))
 (let (($x7862 (= (stack_s x_0 x_1 x_2 0 (_ bv0 6)) x_0)))
 (let (($x9108 (= ?x72 (_ bv3 6))))
 (and $x9108 $x7862 $x5347 $x7763 $x3971 $x5077 $x6833 (= ?x8994 (stack_s x_0 x_1 x_2 0 (bvadd (_ bv62 6) ?x72))) (= ?x10183 (stack_s x_0 x_1 x_2 0 (bvadd (_ bv63 6) ?x72))) $x11281 (= ?x154 ?x72) $x11372 $x7244 (= (exc_halt_s 1) (or $x57 (not (bvsle (_ bv0 6) (bvadd (_ bv62 6) ?x72))))) (= ?x6506 (stack_s x_0 x_1 x_2 1 (bvadd (_ bv61 6) ?x154))) (= (stack_s x_0 x_1 x_2 2 (bvadd (_ bv61 6) ?x2272)) ?x8994) (= ?x1223 ?x10183) (= ?x604 (+ 3 ?x5650)) $x5959 $x1143 $x11420 $x10704 (= ?x4407 ?x1223) (= ?x9845 ?x6506) (= ?x8669 (+ 3 ?x604)) (= ?x3851 ?x2272) $x8090 $x7802 $x4380 $x3635 (= (stack_s x_0 x_1 x_2 4 ?x8089) ?x9845) (= (stack_s x_0 x_1 x_2 4 ?x1738) ?x4407) $x11173 (= ?x9433 (bvadd (_ bv1 6) ?x3851)) $x11240 $x5783 (= $x9175 $x2051) (= ?x2024 ?x10268) (= (stack_s x_0 x_1 x_2 5 ?x11364) ?x10268) (= (stack_s x_0 x_1 x_2 5 ?x3395) ?x9593) (= ?x8609 (+ 3 ?x4562)) (= ?x4319 (bvadd (_ bv1 6) ?x9433)) $x9296 $x862 (= $x1862 $x5832) (= (stack_s x_0 x_1 x_2 6 (bvadd (_ bv63 6) ?x9114)) ?x8373) (= (stack_s x_0 x_1 x_2 6 ?x3570) ?x8373) (= (stack_s x_0 x_1 x_2 6 ?x9002) ?x2024) $x109 (= ?x9114 (bvadd (_ bv1 6) ?x4319)) $x937 $x230 (= $x7121 $x6228) (= (stack_t x_0 x_1 x_2 1 (bvadd (_ bv63 6) ?x4554)) ?x3168) (= (stack_t x_0 x_1 x_2 1 ?x8570) ?x3168) $x7716 $x5066 (= (used_gas_t x_0 x_1 x_2 1) (+ 3 ?x4890)) $x2096 $x11830 $x7292 (= $x11985 (or $x56 $x921 (not (bvsle (_ bv0 6) ?x8570)))) (= ?x11396 (stack_t x_0 x_1 x_2 1 (bvadd (_ bv61 6) ?x4554))) (= ?x7829 (stack_t x_0 x_1 x_2 1 (bvadd (_ bv63 6) ?x4554))) (= ?x7885 ?x7245) $x649 (= ?x8890 ?x4554) $x3958 $x3589 $x698 (= ?x248 (stack_t x_0 x_1 x_2 2 (bvadd (_ bv60 6) ?x8890))) (= (stack_t x_0 x_1 x_2 3 (bvadd (_ bv60 6) ?x7621)) ?x11396) (= (stack_t x_0 x_1 x_2 3 (bvadd (_ bv61 6) ?x7621)) ?x7829) (= ?x9785 ?x7885) (= ?x2091 (+ 3 ?x9021)) $x5385 $x2802 $x3963 $x5589 (= ?x9444 ?x9785) (= (stack_t x_0 x_1 x_2 4 ?x150) ?x9785) (= (stack_t x_0 x_1 x_2 4 ?x9251) ?x248) (= ?x11155 (+ 3 ?x2091)) (= ?x7495 (bvadd (_ bv1 6) ?x7621)) $x9295 $x6938 (= $x7854 $x11027) (= (stack_t x_0 x_1 x_2 5 (bvadd (_ bv63 6) ?x10036)) ?x4785) (= (stack_t x_0 x_1 x_2 5 ?x3094) ?x4785) $x6168 $x527 (= (stack_t x_0 x_1 x_2 5 ?x8167) ?x9444) $x1060 (= ?x10036 (bvadd (_ bv1 6) ?x7495)) $x2047 $x1488 (= $x10311 $x875) $x73 $x7961 $x58 $x10443 $x4162 (not (and $x6242 $x8930 $x4790 $x11264)))))))))))))))))))))))))))))))))))))))))))))))))))))))))))))))))))))))))))))))))))))))))))))))))))))))))))))))))))))))))))))))))))))))))
 )
(check-sat)
(get-proof)
